param N_cities := 8;
param D_NDD := 8;
param N_FC := 3;

param Distance :
	1	2	3	4	5	6	7	8 :=
1	0	9	10	12	14	15	14	16
2	9	0	11	10	14	12	18	15
3	10	11	0	8	8	9	11	13
4	12	10	8	0	9	8	11	10
5	14	14	8	9	0	8	8	10
6	15	12	9	8	8	0	9	8
7	14	18	11	11	8	9	0	8
8	16	15	13	10	10	8	8	0;

param Market :=
1	40000
2	30000
3	35000
4	20000
5	15000
6	50000
7	45000
8	60000;
